c description: Random 2-CNF over 15 variables and 15 clauses
c generator: CNFgen (0.9.0)
c copyright: (C) 2012-2020 Massimo Lauria <massimo.lauria@uniroma1.it>
c url: https://massimolauria.net/cnfgen
c
p cnf 15 15
-13 15 0
-1 7 0
1 5 0
-9 -13 0
3 10 0
-8 12 0
1 -4 0
-11 -13 0
10 -11 0
-4 -11 0
4 6 0
9 14 0
-11 13 0
-3 12 0
-7 -12 0